80 335
51 64 52 58 94 67 80 74 65 96 57 50 59 56 58 72 57 68 52 98 61 63 53 88 91 93 71 77 86 85 52 94 77 68 54 68 68 96 87 63 52 93 98 78 81 97 69 80 85 50 88 73 94 54 72 100 55 53 69 71 83 71 81 77 55 70 73 53 93 60 70 81 96 93 86 93 68 58 100 91
88 65 81 75 66 73 64 91 73 99 57 75 74 99 76 96 96 95 55 70 87 82 54 96 53 74 94 63 73 61 90 60 91 82 89 81 72 85 94 78 62 67 85 87 82 72 92 63 61 76 83 61 89 53 57 79 99 52 71 54 74 67 57 81 56 96 82 94 66 92 90 71 98 91 98 64 70 71 54 59
